p tw 117 21061 2 
1 3 
1 4 
1 5 
1 6 
1 7 
1 8 
1 9 
1 10 
1 11 
1 12 
1 13 
1 14 
1 15 
1 16 
1 17 
1 18 
1 19 
1 20 
1 21 
1 22 
1 23 
1 24 
1 25 
1 31 
1 37 
1 55 
1 72 
1 79 
1 87 
1 95 
1 99 
1 106 
1 108 
1 109 
1 117 
2 3 
2 4 
2 5 
2 6 
2 7 
2 8 
2 9 
2 10 
2 11 
2 12 
2 13 
2 14 
2 21 
2 26 
2 27 
2 28 
2 29 
2 30 
2 31 
2 32 
2 33 
2 34 
2 35 
2 36 
2 44 
2 50 
2 60 
2 66 
2 77 
2 92 
2 100 
2 103 
2 104 
2 105 
2 106 
3 4 
3 5 
3 6 
3 7 
3 8 
3 9 
3 10 
3 11 
3 12 
3 13 
3 15 
3 16 
3 26 
3 27 
3 37 
3 38 
3 39 
3 40 
3 41 
3 42 
3 43 
3 44 
3 45 
3 46 
3 47 
3 48 
3 49 
3 50 
3 51 
3 52 
3 53 
3 54 
3 55 
3 56 
4 5 
4 6 
4 7 
4 8 
4 9 
4 10 
4 11 
4 12 
4 13 
4 15 
4 17 
4 28 
4 29 
4 37 
4 47 
4 48 
4 57 
4 58 
4 59 
4 60 
4 61 
4 62 
4 63 
4 64 
4 65 
4 66 
4 67 
4 68 
4 69 
4 70 
4 71 
4 72 
4 73 
5 6 
5 7 
5 8 
5 9 
5 10 
5 11 
5 12 
5 13 
5 18 
5 23 
5 30 
5 32 
5 38 
5 44 
5 49 
5 53 
5 57 
5 64 
5 65 
5 70 
5 74 
5 75 
5 76 
5 77 
5 78 
5 79 
5 85 
5 95 
5 97 
5 102 
5 112 
5 116 
6 7 
6 8 
6 9 
6 10 
6 11 
6 12 
6 13 
6 16 
6 21 
6 30 
6 31 
6 39 
6 42 
6 56 
6 58 
6 63 
6 66 
6 67 
6 74 
6 80 
6 81 
6 82 
6 83 
6 84 
6 85 
6 93 
6 102 
6 107 
6 109 
6 114 
6 115 
7 8 
7 9 
7 10 
7 11 
7 12 
7 13 
7 19 
7 23 
7 26 
7 32 
7 40 
7 50 
7 52 
7 59 
7 62 
7 67 
7 73 
7 74 
7 75 
7 80 
7 86 
7 87 
7 88 
7 89 
7 91 
7 103 
7 110 
7 111 
7 114 
7 117 
8 9 
8 10 
8 11 
8 12 
8 13 
8 18 
8 20 
8 29 
8 36 
8 40 
8 41 
8 51 
8 55 
8 58 
8 62 
8 71 
8 76 
8 84 
8 86 
8 90 
8 91 
8 92 
8 93 
8 94 
8 95 
8 104 
8 107 
8 112 
8 113 
9 10 
9 11 
9 12 
9 13 
9 14 
9 17 
9 33 
9 42 
9 45 
9 51 
9 52 
9 60 
9 68 
9 70 
9 76 
9 78 
9 80 
9 82 
9 88 
9 90 
9 96 
9 97 
9 98 
9 99 
9 101 
9 103 
9 107 
9 108 
10 11 
10 12 
10 13 
10 20 
10 25 
10 27 
10 34 
10 39 
10 43 
10 48 
10 57 
10 61 
10 69 
10 78 
10 81 
10 86 
10 87 
10 91 
10 96 
10 99 
10 100 
10 101 
10 102 
10 105 
10 113 
10 114 
10 116 
11 12 
11 13 
11 22 
11 24 
11 34 
11 35 
11 45 
11 46 
11 47 
11 53 
11 59 
11 71 
11 73 
11 75 
11 77 
11 83 
11 85 
11 90 
11 94 
11 96 
11 101 
11 106 
11 109 
11 110 
11 113 
11 115 
12 13 
12 22 
12 24 
12 35 
12 36 
12 38 
12 46 
12 49 
12 54 
12 61 
12 63 
12 69 
12 72 
12 82 
12 84 
12 88 
12 89 
12 92 
12 93 
12 97 
12 98 
12 100 
12 111 
12 116 
12 117 
13 19 
13 25 
13 28 
13 33 
13 41 
13 43 
13 54 
13 56 
13 64 
13 65 
13 68 
13 79 
13 81 
13 83 
13 89 
13 94 
13 98 
13 104 
13 105 
13 108 
13 110 
13 111 
13 112 
13 115 
14 15 
14 16 
14 17 
14 18 
14 19 
14 20 
14 21 
14 22 
14 23 
14 24 
14 25 
14 26 
14 27 
14 28 
14 29 
14 30 
14 31 
14 32 
14 33 
14 34 
14 35 
14 36 
14 42 
14 52 
14 60 
14 68 
14 76 
14 80 
14 90 
14 96 
14 97 
14 98 
14 99 
15 16 
15 17 
15 18 
15 19 
15 20 
15 21 
15 22 
15 23 
15 24 
15 25 
15 26 
15 29 
15 37 
15 38 
15 39 
15 40 
15 41 
15 42 
15 43 
15 44 
15 45 
15 46 
15 48 
15 65 
15 66 
15 67 
15 68 
15 69 
15 70 
15 71 
15 72 
15 73 
16 17 
16 18 
16 19 
16 20 
16 21 
16 22 
16 23 
16 24 
16 25 
16 27 
16 31 
16 39 
16 47 
16 48 
16 49 
16 50 
16 51 
16 52 
16 53 
16 54 
16 55 
16 56 
16 58 
16 66 
16 74 
16 80 
16 81 
16 82 
16 83 
16 84 
16 85 
17 18 
17 19 
17 20 
17 21 
17 22 
17 23 
17 24 
17 25 
17 28 
17 33 
17 37 
17 45 
17 47 
17 51 
17 57 
17 58 
17 59 
17 60 
17 61 
17 62 
17 63 
17 64 
17 70 
17 78 
17 82 
17 88 
17 101 
17 103 
17 107 
17 108 
18 19 
18 20 
18 21 
18 22 
18 23 
18 24 
18 25 
18 29 
18 30 
18 38 
18 41 
18 49 
18 51 
18 57 
18 58 
18 65 
18 74 
18 75 
18 76 
18 77 
18 78 
18 79 
18 86 
18 90 
18 91 
18 92 
18 93 
18 94 
18 95 
19 20 
19 21 
19 22 
19 23 
19 24 
19 25 
19 28 
19 32 
19 40 
19 43 
19 50 
19 56 
19 59 
19 65 
19 67 
19 75 
19 80 
19 83 
19 86 
19 87 
19 88 
19 89 
19 94 
19 98 
19 105 
19 108 
19 111 
19 112 
20 21 
20 22 
20 23 
20 24 
20 25 
20 27 
20 36 
20 40 
20 43 
20 55 
20 57 
20 62 
20 69 
20 71 
20 76 
20 81 
20 84 
20 87 
20 91 
20 96 
20 100 
20 101 
20 102 
20 104 
20 107 
20 112 
20 113 
21 22 
21 23 
21 24 
21 25 
21 30 
21 42 
21 44 
21 50 
21 56 
21 60 
21 63 
21 66 
21 67 
21 77 
21 92 
21 93 
21 100 
21 102 
21 103 
21 104 
21 105 
21 106 
21 107 
21 109 
21 114 
21 115 
22 23 
22 24 
22 25 
22 34 
22 35 
22 38 
22 46 
22 53 
22 54 
22 59 
22 61 
22 71 
22 72 
22 77 
22 83 
22 84 
22 88 
22 90 
22 93 
22 97 
22 100 
22 101 
22 109 
22 110 
22 111 
23 24 
23 25 
23 26 
23 32 
23 44 
23 52 
23 53 
23 62 
23 64 
23 70 
23 73 
23 74 
23 85 
23 91 
23 95 
23 97 
23 102 
23 103 
23 110 
23 111 
23 112 
23 114 
23 116 
23 117 
24 25 
24 35 
24 36 
24 45 
24 46 
24 47 
24 49 
24 63 
24 69 
24 73 
24 75 
24 82 
24 85 
24 89 
24 92 
24 94 
24 96 
24 98 
24 106 
24 113 
24 115 
24 116 
24 117 
25 33 
25 34 
25 39 
25 41 
25 48 
25 54 
25 61 
25 64 
25 68 
25 78 
25 79 
25 81 
25 86 
25 89 
25 99 
25 104 
25 105 
25 110 
25 113 
25 114 
25 115 
25 116 
26 27 
26 28 
26 29 
26 30 
26 31 
26 32 
26 33 
26 34 
26 35 
26 36 
26 37 
26 38 
26 39 
26 40 
26 41 
26 42 
26 43 
26 44 
26 45 
26 46 
26 52 
26 62 
26 73 
26 74 
26 91 
26 103 
26 110 
26 111 
26 114 
26 117 
27 28 
27 29 
27 30 
27 31 
27 32 
27 33 
27 34 
27 35 
27 36 
27 43 
27 47 
27 48 
27 49 
27 50 
27 51 
27 52 
27 53 
27 54 
27 55 
27 56 
27 57 
27 69 
27 81 
27 87 
27 91 
27 96 
27 100 
27 101 
27 102 
28 29 
28 30 
28 31 
28 32 
28 33 
28 34 
28 35 
28 36 
28 37 
28 43 
28 47 
28 56 
28 57 
28 58 
28 59 
28 60 
28 61 
28 62 
28 63 
28 64 
28 65 
28 83 
28 94 
28 98 
28 105 
28 108 
28 111 
28 112 
29 30 
29 31 
29 32 
29 33 
29 34 
29 35 
29 36 
29 41 
29 48 
29 51 
29 58 
29 65 
29 66 
29 67 
29 68 
29 69 
29 70 
29 71 
29 72 
29 73 
29 86 
29 90 
29 91 
29 92 
29 93 
29 94 
29 95 
30 31 
30 32 
30 33 
30 34 
30 35 
30 36 
30 38 
30 42 
30 49 
30 56 
30 57 
30 63 
30 65 
30 67 
30 74 
30 75 
30 76 
30 77 
30 78 
30 79 
30 93 
30 102 
30 107 
30 109 
30 114 
30 115 
31 32 
31 33 
31 34 
31 35 
31 36 
31 37 
31 39 
31 55 
31 58 
31 66 
31 72 
31 74 
31 79 
31 80 
31 81 
31 82 
31 83 
31 84 
31 85 
31 87 
31 95 
31 99 
31 106 
31 108 
31 109 
31 117 
32 33 
32 34 
32 35 
32 36 
32 40 
32 44 
32 50 
32 53 
32 59 
32 64 
32 67 
32 70 
32 75 
32 80 
32 85 
32 86 
32 87 
32 88 
32 89 
32 95 
32 97 
32 102 
32 112 
32 116 
33 34 
33 35 
33 36 
33 41 
33 45 
33 51 
33 54 
33 64 
33 68 
33 70 
33 78 
33 79 
33 81 
33 82 
33 88 
33 89 
33 101 
33 103 
33 104 
33 107 
33 108 
33 110 
33 115 
34 35 
34 36 
34 39 
34 46 
34 48 
34 53 
34 59 
34 61 
34 71 
34 77 
34 78 
34 83 
34 86 
34 90 
34 99 
34 101 
34 105 
34 109 
34 110 
34 113 
34 114 
34 116 
35 36 
35 38 
35 45 
35 47 
35 54 
35 61 
35 72 
35 73 
35 75 
35 84 
35 85 
35 88 
35 93 
35 94 
35 96 
35 97 
35 100 
35 106 
35 111 
35 113 
35 115 
36 40 
36 46 
36 49 
36 55 
36 62 
36 63 
36 69 
36 71 
36 76 
36 82 
36 84 
36 89 
36 92 
36 98 
36 104 
36 107 
36 112 
36 113 
36 116 
36 117 
37 38 
37 39 
37 40 
37 41 
37 42 
37 43 
37 44 
37 45 
37 46 
37 47 
37 55 
37 57 
37 58 
37 59 
37 60 
37 61 
37 62 
37 63 
37 64 
37 72 
37 79 
37 87 
37 95 
37 99 
37 106 
37 108 
37 109 
37 117 
38 39 
38 40 
38 41 
38 42 
38 43 
38 44 
38 45 
38 46 
38 49 
38 54 
38 57 
38 61 
38 65 
38 72 
38 74 
38 75 
38 76 
38 77 
38 78 
38 79 
38 84 
38 88 
38 93 
38 97 
38 100 
38 111 
39 40 
39 41 
39 42 
39 43 
39 44 
39 45 
39 46 
39 48 
39 58 
39 61 
39 66 
39 74 
39 78 
39 80 
39 81 
39 82 
39 83 
39 84 
39 85 
39 86 
39 99 
39 105 
39 113 
39 114 
39 116 
40 41 
40 42 
40 43 
40 44 
40 45 
40 46 
40 50 
40 55 
40 59 
40 62 
40 67 
40 71 
40 75 
40 76 
40 80 
40 84 
40 86 
40 87 
40 88 
40 89 
40 104 
40 107 
40 112 
40 113 
41 42 
41 43 
41 44 
41 45 
41 46 
41 51 
41 54 
41 58 
41 64 
41 68 
41 79 
41 81 
41 86 
41 89 
41 90 
41 91 
41 92 
41 93 
41 94 
41 95 
41 104 
41 110 
41 115 
42 43 
42 44 
42 45 
42 46 
42 52 
42 56 
42 60 
42 63 
42 67 
42 68 
42 76 
42 80 
42 90 
42 93 
42 96 
42 97 
42 98 
42 99 
42 102 
42 107 
42 109 
42 114 
42 115 
43 44 
43 45 
43 46 
43 56 
43 57 
43 65 
43 69 
43 81 
43 83 
43 87 
43 91 
43 94 
43 96 
43 98 
43 100 
43 101 
43 102 
43 105 
43 108 
43 111 
43 112 
44 45 
44 46 
44 50 
44 53 
44 60 
44 64 
44 66 
44 70 
44 77 
44 85 
44 92 
44 95 
44 97 
44 100 
44 102 
44 103 
44 104 
44 105 
44 106 
44 112 
44 116 
45 46 
45 47 
45 51 
45 70 
45 73 
45 75 
45 78 
45 82 
45 85 
45 88 
45 94 
45 96 
45 101 
45 103 
45 106 
45 107 
45 108 
45 113 
45 115 
46 49 
46 53 
46 59 
46 63 
46 69 
46 71 
46 77 
46 82 
46 83 
46 89 
46 90 
46 92 
46 98 
46 101 
46 109 
46 110 
46 116 
46 117 
47 48 
47 49 
47 50 
47 51 
47 52 
47 53 
47 54 
47 55 
47 56 
47 57 
47 58 
47 59 
47 60 
47 61 
47 62 
47 63 
47 64 
47 73 
47 75 
47 85 
47 94 
47 96 
47 106 
47 113 
47 115 
48 49 
48 50 
48 51 
48 52 
48 53 
48 54 
48 55 
48 56 
48 61 
48 65 
48 66 
48 67 
48 68 
48 69 
48 70 
48 71 
48 72 
48 73 
48 78 
48 86 
48 99 
48 105 
48 113 
48 114 
48 116 
49 50 
49 51 
49 52 
49 53 
49 54 
49 55 
49 56 
49 57 
49 63 
49 65 
49 69 
49 74 
49 75 
49 76 
49 77 
49 78 
49 79 
49 82 
49 89 
49 92 
49 98 
49 116 
49 117 
50 51 
50 52 
50 53 
50 54 
50 55 
50 56 
50 59 
50 60 
50 66 
50 67 
50 75 
50 77 
50 80 
50 86 
50 87 
50 88 
50 89 
50 92 
50 100 
50 103 
50 104 
50 105 
50 106 
51 52 
51 53 
51 54 
51 55 
51 56 
51 58 
51 70 
51 78 
51 82 
51 86 
51 88 
51 90 
51 91 
51 92 
51 93 
51 94 
51 95 
51 101 
51 103 
51 107 
51 108 
52 53 
52 54 
52 55 
52 56 
52 60 
52 62 
52 68 
52 73 
52 74 
52 76 
52 80 
52 90 
52 91 
52 96 
52 97 
52 98 
52 99 
52 103 
52 110 
52 111 
52 114 
52 117 
53 54 
53 55 
53 56 
53 59 
53 64 
53 70 
53 71 
53 77 
53 83 
53 85 
53 90 
53 95 
53 97 
53 101 
53 102 
53 109 
53 110 
53 112 
53 116 
54 55 
54 56 
54 61 
54 64 
54 68 
54 72 
54 79 
54 81 
54 84 
54 88 
54 89 
54 93 
54 97 
54 100 
54 104 
54 110 
54 111 
54 115 
55 56 
55 62 
55 71 
55 72 
55 76 
55 79 
55 84 
55 87 
55 95 
55 99 
55 104 
55 106 
55 107 
55 108 
55 109 
55 112 
55 113 
55 117 
56 63 
56 65 
56 67 
56 83 
56 93 
56 94 
56 98 
56 102 
56 105 
56 107 
56 108 
56 109 
56 111 
56 112 
56 114 
56 115 
57 58 
57 59 
57 60 
57 61 
57 62 
57 63 
57 64 
57 65 
57 69 
57 74 
57 75 
57 76 
57 77 
57 78 
57 79 
57 81 
57 87 
57 91 
57 96 
57 100 
57 101 
57 102 
58 59 
58 60 
58 61 
58 62 
58 63 
58 64 
58 66 
58 74 
58 80 
58 81 
58 82 
58 83 
58 84 
58 85 
58 86 
58 90 
58 91 
58 92 
58 93 
58 94 
58 95 
59 60 
59 61 
59 62 
59 63 
59 64 
59 67 
59 71 
59 75 
59 77 
59 80 
59 83 
59 86 
59 87 
59 88 
59 89 
59 90 
59 101 
59 109 
59 110 
60 61 
60 62 
60 63 
60 64 
60 66 
60 68 
60 76 
60 77 
60 80 
60 90 
60 92 
60 96 
60 97 
60 98 
60 99 
60 100 
60 103 
60 104 
60 105 
60 106 
61 62 
61 63 
61 64 
61 72 
61 78 
61 84 
61 86 
61 88 
61 93 
61 97 
61 99 
61 100 
61 105 
61 111 
61 113 
61 114 
61 116 
62 63 
62 64 
62 71 
62 73 
62 74 
62 76 
62 84 
62 91 
62 103 
62 104 
62 107 
62 110 
62 111 
62 112 
62 113 
62 114 
62 117 
63 64 
63 67 
63 69 
63 82 
63 89 
63 92 
63 93 
63 98 
63 102 
63 107 
63 109 
63 114 
63 115 
63 116 
63 117 
64 68 
64 70 
64 79 
64 81 
64 85 
64 89 
64 95 
64 97 
64 102 
64 104 
64 110 
64 112 
64 115 
64 116 
65 66 
65 67 
65 68 
65 69 
65 70 
65 71 
65 72 
65 73 
65 74 
65 75 
65 76 
65 77 
65 78 
65 79 
65 83 
65 94 
65 98 
65 105 
65 108 
65 111 
65 112 
66 67 
66 68 
66 69 
66 70 
66 71 
66 72 
66 73 
66 74 
66 77 
66 80 
66 81 
66 82 
66 83 
66 84 
66 85 
66 92 
66 100 
66 103 
66 104 
66 105 
66 106 
67 68 
67 69 
67 70 
67 71 
67 72 
67 73 
67 75 
67 80 
67 86 
67 87 
67 88 
67 89 
67 93 
67 102 
67 107 
67 109 
67 114 
67 115 
68 69 
68 70 
68 71 
68 72 
68 73 
68 76 
68 79 
68 80 
68 81 
68 89 
68 90 
68 96 
68 97 
68 98 
68 99 
68 104 
68 110 
68 115 
69 70 
69 71 
69 72 
69 73 
69 81 
69 82 
69 87 
69 89 
69 91 
69 92 
69 96 
69 98 
69 100 
69 101 
69 102 
69 116 
69 117 
70 71 
70 72 
70 73 
70 78 
70 82 
70 85 
70 88 
70 95 
70 97 
70 101 
70 102 
70 103 
70 107 
70 108 
70 112 
70 116 
71 72 
71 73 
71 76 
71 77 
71 83 
71 84 
71 90 
71 101 
71 104 
71 107 
71 109 
71 110 
71 112 
71 113 
72 73 
72 79 
72 84 
72 87 
72 88 
72 93 
72 95 
72 97 
72 99 
72 100 
72 106 
72 108 
72 109 
72 111 
72 117 
73 74 
73 75 
73 85 
73 91 
73 94 
73 96 
73 103 
73 106 
73 110 
73 111 
73 113 
73 114 
73 115 
73 117 
74 75 
74 76 
74 77 
74 78 
74 79 
74 80 
74 81 
74 82 
74 83 
74 84 
74 85 
74 91 
74 103 
74 110 
74 111 
74 114 
74 117 
75 76 
75 77 
75 78 
75 79 
75 80 
75 85 
75 86 
75 87 
75 88 
75 89 
75 94 
75 96 
75 106 
75 113 
75 115 
76 77 
76 78 
76 79 
76 80 
76 84 
76 90 
76 96 
76 97 
76 98 
76 99 
76 104 
76 107 
76 112 
76 113 
77 78 
77 79 
77 83 
77 90 
77 92 
77 100 
77 101 
77 103 
77 104 
77 105 
77 106 
77 109 
77 110 
78 79 
78 82 
78 86 
78 88 
78 99 
78 101 
78 103 
78 105 
78 107 
78 108 
78 113 
78 114 
78 116 
79 81 
79 87 
79 89 
79 95 
79 99 
79 104 
79 106 
79 108 
79 109 
79 110 
79 115 
79 117 
80 81 
80 82 
80 83 
80 84 
80 85 
80 86 
80 87 
80 88 
80 89 
80 90 
80 96 
80 97 
80 98 
80 99 
81 82 
81 83 
81 84 
81 85 
81 87 
81 89 
81 91 
81 96 
81 100 
81 101 
81 102 
81 104 
81 110 
81 115 
82 83 
82 84 
82 85 
82 88 
82 89 
82 92 
82 98 
82 101 
82 103 
82 107 
82 108 
82 116 
82 117 
83 84 
83 85 
83 90 
83 94 
83 98 
83 101 
83 105 
83 108 
83 109 
83 110 
83 111 
83 112 
84 85 
84 88 
84 93 
84 97 
84 100 
84 104 
84 107 
84 111 
84 112 
84 113 
85 94 
85 95 
85 96 
85 97 
85 102 
85 106 
85 112 
85 113 
85 115 
85 116 
86 87 
86 88 
86 89 
86 90 
86 91 
86 92 
86 93 
86 94 
86 95 
86 99 
86 105 
86 113 
86 114 
86 116 
87 88 
87 89 
87 91 
87 95 
87 96 
87 99 
87 100 
87 101 
87 102 
87 106 
87 108 
87 109 
87 117 
88 89 
88 93 
88 97 
88 100 
88 101 
88 103 
88 107 
88 108 
88 111 
89 92 
89 98 
89 104 
89 110 
89 115 
89 116 
89 117 
90 91 
90 92 
90 93 
90 94 
90 95 
90 96 
90 97 
90 98 
90 99 
90 101 
90 109 
90 110 
91 92 
91 93 
91 94 
91 95 
91 96 
91 100 
91 101 
91 102 
91 103 
91 110 
91 111 
91 114 
91 117 
92 93 
92 94 
92 95 
92 98 
92 100 
92 103 
92 104 
92 105 
92 106 
92 116 
92 117 
93 94 
93 95 
93 97 
93 100 
93 102 
93 107 
93 109 
93 111 
93 114 
93 115 
94 95 
94 96 
94 98 
94 105 
94 106 
94 108 
94 111 
94 112 
94 113 
94 115 
95 97 
95 99 
95 102 
95 106 
95 108 
95 109 
95 112 
95 116 
95 117 
96 97 
96 98 
96 99 
96 100 
96 101 
96 102 
96 106 
96 113 
96 115 
97 98 
97 99 
97 100 
97 102 
97 111 
97 112 
97 116 
98 99 
98 105 
98 108 
98 111 
98 112 
98 116 
98 117 
99 105 
99 106 
99 108 
99 109 
99 113 
99 114 
99 116 
99 117 
100 101 
100 102 
100 103 
100 104 
100 105 
100 106 
100 111 
101 102 
101 103 
101 107 
101 108 
101 109 
101 110 
102 107 
102 109 
102 112 
102 114 
102 115 
102 116 
103 104 
103 105 
103 106 
103 107 
103 108 
103 110 
103 111 
103 114 
103 117 
104 105 
104 106 
104 107 
104 110 
104 112 
104 113 
104 115 
105 106 
105 108 
105 111 
105 112 
105 113 
105 114 
105 116 
106 108 
106 109 
106 113 
106 115 
106 117 
107 108 
107 109 
107 112 
107 113 
107 114 
107 115 
108 109 
108 111 
108 112 
108 117 
109 110 
109 114 
109 115 
109 117 
110 111 
110 114 
110 115 
110 117 
111 112 
111 114 
111 117 
112 113 
112 116 
113 114 
113 115 
113 116 
114 115 
114 116 
114 117 
116 117 
